; PUSH cw_2 DUP1 PUSH cw_2 SWAP1 POP => PUSH cw_2 DUP1
(set-option :produce-proofs true)
; 
(set-info :status unknown)
(declare-fun storage_t ((_ BitVec 256) Int (_ BitVec 256)) (_ BitVec 256))
(declare-fun w_2 () (_ BitVec 256))
(declare-fun storage_s ((_ BitVec 256) Int (_ BitVec 256)) (_ BitVec 256))
(declare-fun exc_halt_t (Int) Bool)
(declare-fun exc_halt_s (Int) Bool)
(declare-fun stack_t ((_ BitVec 256) Int (_ BitVec 6)) (_ BitVec 256))
(declare-fun stack_s ((_ BitVec 256) Int (_ BitVec 6)) (_ BitVec 256))
(declare-fun sc_t (Int) (_ BitVec 6))
(declare-fun sc_s (Int) (_ BitVec 6))
(declare-fun used_gas_t ((_ BitVec 256) Int) Int)
(declare-fun used_gas_s ((_ BitVec 256) Int) Int)
(assert
 (let (($x8678 (forall ((w (_ BitVec 256)) )(let ((?x8398 (storage_t w_2 2 w)))
 (let ((?x1231 (storage_s w_2 5 w)))
 (= ?x1231 ?x8398))))
 ))
 (let (($x7905 (exc_halt_t 2)))
 (let (($x1862 (exc_halt_s 5)))
 (let (($x9743 (= $x1862 $x7905)))
 (let (($x1064 (forall ((n (_ BitVec 6)) )(let ((?x3490 (stack_t w_2 2 n)))
 (let ((?x7621 (stack_s w_2 5 n)))
 (let (($x12002 (= ?x7621 ?x3490)))
 (let ((?x11248 (sc_t 2)))
 (let (($x9965 (bvsle ?x11248 n)))
 (or $x9965 $x12002)))))))
 ))
 (let ((?x11248 (sc_t 2)))
 (let ((?x4319 (sc_s 5)))
 (let (($x9916 (= ?x4319 ?x11248)))
 (let ((?x7552 (used_gas_t w_2 0)))
 (let ((?x2225 (used_gas_s w_2 0)))
 (let (($x3803 (= ?x2225 ?x7552)))
 (let (($x5578 (forall ((w (_ BitVec 256)) )(let ((?x11075 (storage_t w_2 0 w)))
 (let ((?x6497 (storage_s w_2 0 w)))
 (= ?x6497 ?x11075))))
 ))
 (let (($x56 (exc_halt_t 0)))
 (let (($x57 (exc_halt_s 0)))
 (let (($x58 (= $x57 $x56)))
 (let (($x8089 (forall ((n (_ BitVec 6)) )(let ((?x4190 (stack_t w_2 0 n)))
 (let ((?x11513 (stack_s w_2 0 n)))
 (let (($x9556 (= ?x11513 ?x4190)))
 (let ((?x63 (sc_t 0)))
 (let (($x2738 (bvsle ?x63 n)))
 (or $x2738 $x9556)))))))
 ))
 (let ((?x63 (sc_t 0)))
 (let ((?x72 (sc_s 0)))
 (let (($x73 (= ?x72 ?x63)))
 (let (($x4852 (exc_halt_t 1)))
 (let (($x1824 (not (bvsle (_ bv0 6) (bvadd (_ bv63 6) (sc_t 1))))))
 (let (($x529 (not (= ((_ extract 6 6) (bvadd (_ bv1 7) (concat (_ bv0 1) (sc_t 1)))) (_ bv0 1)))))
 (let (($x2432 (= $x7905 (or $x529 $x1824 $x4852))))
 (let (($x5709 (forall ((w (_ BitVec 256)) )(let ((?x7632 (storage_t w_2 1 w)))
 (let ((?x8398 (storage_t w_2 2 w)))
 (= ?x8398 ?x7632))))
 ))
 (let (($x421 (forall ((n (_ BitVec 6)) )(let ((?x9666 (sc_t 1)))
 (let ((?x10665 (bvadd (_ bv63 6) ?x9666)))
 (let (($x5116 (bvsle ?x10665 n)))
 (or (= (stack_t w_2 2 n) (stack_t w_2 1 n)) $x5116)))))
 ))
 (let (($x3655 (= ?x11248 (bvadd (_ bv1 6) (sc_t 1)))))
 (let ((?x9666 (sc_t 1)))
 (let ((?x10665 (bvadd (_ bv63 6) ?x9666)))
 (let ((?x5060 (stack_t w_2 1 ?x10665)))
 (let (($x489 (= $x4852 (or $x56 (not (= ((_ extract 6 6) (bvadd (_ bv1 7) (concat (_ bv0 1) ?x63))) (_ bv0 1)))))))
 (let (($x8543 (forall ((w (_ BitVec 256)) )(let ((?x11075 (storage_t w_2 0 w)))
 (let ((?x7632 (storage_t w_2 1 w)))
 (= ?x7632 ?x11075))))
 ))
 (let (($x9979 (forall ((n (_ BitVec 6)) )(let ((?x63 (sc_t 0)))
 (let (($x2738 (bvsle ?x63 n)))
 (or $x2738 (= (stack_t w_2 1 n) (stack_t w_2 0 n))))))
 ))
 (let (($x3631 (= ?x9666 (bvadd (_ bv1 6) ?x63))))
 (let (($x8314 (= $x1862 (or (exc_halt_s 4) (not (bvsle (_ bv0 6) (bvadd (_ bv63 6) (sc_s 4))))))))
 (let (($x3079 (forall ((w (_ BitVec 256)) )(let ((?x1022 (storage_s w_2 4 w)))
 (let ((?x1231 (storage_s w_2 5 w)))
 (= ?x1231 ?x1022))))
 ))
 (let (($x6085 (forall ((n (_ BitVec 6)) )(let ((?x9433 (sc_s 4)))
 (let ((?x11699 (bvadd (_ bv63 6) ?x9433)))
 (let (($x7483 (bvsle ?x11699 n)))
 (or $x7483 (= (stack_s w_2 5 n) (stack_s w_2 4 n)))))))
 ))
 (let ((?x9433 (sc_s 4)))
 (let ((?x11699 (bvadd (_ bv63 6) ?x9433)))
 (let (($x4137 (= ?x4319 ?x11699)))
 (let (($x9175 (exc_halt_s 4)))
 (let (($x10301 (= $x9175 (or (exc_halt_s 3) (not (bvsle (_ bv0 6) (bvadd (_ bv62 6) (sc_s 3))))))))
 (let (($x10124 (forall ((w (_ BitVec 256)) )(let ((?x860 (storage_s w_2 3 w)))
 (let ((?x1022 (storage_s w_2 4 w)))
 (= ?x1022 ?x860))))
 ))
 (let (($x10545 (forall ((n (_ BitVec 6)) )(let ((?x3851 (sc_s 3)))
 (let ((?x3651 (bvadd (_ bv62 6) ?x3851)))
 (let (($x3189 (bvsle ?x3651 n)))
 (or (= (stack_s w_2 4 n) (stack_s w_2 3 n)) $x3189)))))
 ))
 (let ((?x3851 (sc_s 3)))
 (let (($x2630 (= ?x9433 ?x3851)))
 (let (($x2576 (= (stack_s w_2 4 (bvadd (_ bv62 6) ?x9433)) (stack_s w_2 3 (bvadd (_ bv63 6) ?x3851)))))
 (let (($x5274 (= (stack_s w_2 4 ?x11699) (stack_s w_2 3 (bvadd (_ bv62 6) ?x3851)))))
 (let (($x8580 (not (= ((_ extract 6 6) (bvadd (_ bv1 7) (concat (_ bv0 1) (sc_s 2)))) (_ bv0 1)))))
 (let (($x10052 (exc_halt_s 2)))
 (let (($x8103 (exc_halt_s 3)))
 (let (($x2547 (= $x8103 (or $x10052 $x8580))))
 (let (($x1288 (forall ((w (_ BitVec 256)) )(let ((?x10010 (storage_s w_2 2 w)))
 (let ((?x860 (storage_s w_2 3 w)))
 (= ?x860 ?x10010))))
 ))
 (let (($x10930 (forall ((n (_ BitVec 6)) )(let ((?x2272 (sc_s 2)))
 (let (($x8494 (bvsle ?x2272 n)))
 (or (= (stack_s w_2 3 n) (stack_s w_2 2 n)) $x8494))))
 ))
 (let (($x11281 (= ?x3851 (bvadd (_ bv1 6) (sc_s 2)))))
 (let (($x8780 (exc_halt_s 1)))
 (let (($x8650 (not (bvsle (_ bv0 6) (bvadd (_ bv63 6) (sc_s 1))))))
 (let (($x672 (not (= ((_ extract 6 6) (bvadd (_ bv1 7) (concat (_ bv0 1) (sc_s 1)))) (_ bv0 1)))))
 (let (($x968 (= $x10052 (or $x672 $x8650 $x8780))))
 (let (($x6890 (forall ((w (_ BitVec 256)) )(let ((?x8387 (storage_s w_2 1 w)))
 (let ((?x10010 (storage_s w_2 2 w)))
 (= ?x10010 ?x8387))))
 ))
 (let (($x145 (forall ((n (_ BitVec 6)) )(let ((?x154 (sc_s 1)))
 (let ((?x1005 (bvadd (_ bv63 6) ?x154)))
 (let (($x1223 (bvsle ?x1005 n)))
 (or $x1223 (= (stack_s w_2 2 n) (stack_s w_2 1 n)))))))
 ))
 (let ((?x2272 (sc_s 2)))
 (let (($x7044 (= ?x2272 (bvadd (_ bv1 6) (sc_s 1)))))
 (let ((?x154 (sc_s 1)))
 (let ((?x1005 (bvadd (_ bv63 6) ?x154)))
 (let ((?x9320 (stack_s w_2 1 ?x1005)))
 (let (($x10729 (= $x8780 (or $x57 (not (= ((_ extract 6 6) (bvadd (_ bv1 7) (concat (_ bv0 1) ?x72))) (_ bv0 1)))))))
 (let (($x10822 (forall ((w (_ BitVec 256)) )(let ((?x6497 (storage_s w_2 0 w)))
 (let ((?x8387 (storage_s w_2 1 w)))
 (= ?x8387 ?x6497))))
 ))
 (let (($x11154 (forall ((n (_ BitVec 6)) )(let ((?x72 (sc_s 0)))
 (let (($x8299 (bvsle ?x72 n)))
 (or (= (stack_s w_2 1 n) (stack_s w_2 0 n)) $x8299))))
 ))
 (let (($x4778 (= ?x154 (bvadd (_ bv1 6) ?x72))))
 (let (($x2396 (forall ((w (_ BitVec 256)) )(let ((?x6497 (storage_s w_2 0 w)))
 (= ?x6497 (_ bv0 256))))
 ))
 (let (($x8517 (= ?x2225 0)))
 (let (($x2276 (not $x57)))
 (let (($x4825 (= ?x72 (_ bv0 6))))
 (and $x4825 $x2276 $x8517 $x2396 (= (stack_s w_2 1 ?x72) w_2) (= (used_gas_s w_2 1) (+ 3 ?x2225)) $x4778 $x11154 $x10822 $x10729 (= (stack_s w_2 2 (bvadd (_ bv63 6) ?x2272)) ?x9320) (= (stack_s w_2 2 ?x1005) ?x9320) (= (used_gas_s w_2 2) (+ 3 (used_gas_s w_2 1))) $x7044 $x145 $x6890 $x968 (= (stack_s w_2 3 ?x2272) w_2) (= (used_gas_s w_2 3) (+ 3 (used_gas_s w_2 2))) $x11281 $x10930 $x1288 $x2547 $x5274 $x2576 (= (used_gas_s w_2 4) (+ 3 (used_gas_s w_2 3))) $x2630 $x10545 $x10124 $x10301 (= (used_gas_s w_2 5) (+ 2 (used_gas_s w_2 4))) $x4137 $x6085 $x3079 $x8314 (= (stack_t w_2 1 ?x63) w_2) (= (used_gas_t w_2 1) (+ 3 ?x7552)) $x3631 $x9979 $x8543 $x489 (= (stack_t w_2 2 (bvadd (_ bv63 6) ?x11248)) ?x5060) (= (stack_t w_2 2 ?x10665) ?x5060) (= (used_gas_t w_2 2) (+ 3 (used_gas_t w_2 1))) $x3655 $x421 $x5709 $x2432 $x73 $x8089 $x58 $x5578 $x3803 (not (and $x9916 $x1064 $x9743 $x8678)))))))))))))))))))))))))))))))))))))))))))))))))))))))))))))))))))))))))))))
(check-sat)
(get-proof)
